(set-info :Origin "This instance was generated by: BanditFuzz-- an RL fuzzer for SMT solvers" )
(set-info :Author "Joe Scott, Fed Mora, Vijay Ganesh" )
(set-info :Contact "Joe Scott, joseph.scott@uwaterloo.ca")
(set-logic QF_BV)
(declare-const bool_0 Bool)
(declare-const bool_1 Bool)
(declare-const bool_2 Bool)
(declare-const bool_3 Bool)
(declare-const bool_4 Bool)
(declare-const bv_0 (_ BitVec 32))
(declare-const bv_1 (_ BitVec 32))
(declare-const bv_2 (_ BitVec 32))
(declare-const bv_3 (_ BitVec 32))
(declare-const bv_4 (_ BitVec 32))
(assert (bvsle (bvsub (bvxnor #x2c7faffb  bv_3) (bvshl bv_0 #xef62ff7a )) (bvxor (bvsdiv #xdb9355f2  bv_0) (bvlshr bv_2 bv_0))))
(assert (=> (bvult (bvxor #x89453d68  #xa485e81f ) (bvmul #x758f61dd  #x000778b3 )) (bvsge (bvsdiv #xfccfd8a8  bv_2) (bvlshr bv_3 bv_4))))
(assert (bvuge (bvashr (bvadd #x62e7ff91  bv_1) (bvsrem bv_1 bv_2)) (bvashr (bvsdiv bv_2 bv_0) (bvand bv_3 bv_0))))
(assert (bvuge (bvmul (bvashr #x753526b9  bv_0) (bvadd bv_4 #xe800f7d6 )) (bvnand (bvsdiv bv_0 bv_0) (bvsrem bv_1 bv_2))))
(assert (bvsgt (bvsub (bvshl bv_0 bv_2) (bvor bv_2 bv_0)) (bvsub (bvsrem bv_3 bv_1) (bvmul #x8f75264b  bv_4))))
(check-sat)
(exit)
